20
99
3
25
51
119
65
29
70
36
25
152
1
22
3
103
65
118
104
157
81
64
35
138
78
56
63
176
3
43
94
24
145
24
90
1
124
34
82
91
162
26
162
153
135
165
44
113
144
158
101
120
142
168
131
41
29
126
62
98
16
53
61
7
45
84
159
58
6
64
114
47
128
90
151
136
154
182
96
165
51
175
167
111
30
43
141
59
84
111
147
83
170
160
95
67
65
89
127
21
